
Gurobi 12.0.3 (armlinux64, C++) logging started Thu Dec 11 14:41:54 2025

Set parameter WLSAccessID
Set parameter WLSSecret
Set parameter LicenseID to value 2721417
Academic license 2721417 - for non-commercial use only - registered to ig___@ufv.br
Set parameter Threads to value 8
Set parameter LazyConstraints to value 1
Set parameter PreCrush to value 1
Set parameter Seed to value 100
Set parameter Cuts to value -1
Set parameter TimeLimit to value 43200
Set parameter NumericFocus to value 0
Set parameter SolutionLimit to value 2000000000
Gurobi Optimizer version 12.0.3 build v12.0.3rc0 (armlinux64 - "AlmaLinux 10.0 (Purple Lion)")

CPU model: ARM64
Thread count: 10 physical cores, 10 logical processors, using up to 8 threads

Non-default parameters:
TimeLimit  43200
PreCrush  1
Seed  100
Threads  8
LazyConstraints  1

Academic license 2721417 - for non-commercial use only - registered to ig___@ufv.br
Optimize a model with 139 rows, 256 columns and 724 nonzeros
Model fingerprint: 0x5ef59db7
Variable types: 0 continuous, 256 integer (256 binary)
Coefficient statistics:
  Matrix range     [1e+00, 1e+00]
  Objective range  [8e+00, 6e+01]
  Bounds range     [1e+00, 1e+00]
  RHS range        [1e+00, 4e+00]
Presolve removed 7 rows and 26 columns
Presolve time: 0.00s
Presolved: 132 rows, 230 columns, 662 nonzeros
Variable types: 0 continuous, 230 integer (230 binary)

Root relaxation: objective 2.500413e+02, 80 iterations, 0.00 seconds (0.00 work units)

    Nodes    |    Current Node    |     Objective Bounds      |     Work
 Expl Unexpl |  Obj  Depth IntInf | Incumbent    BestBd   Gap | It/Node Time

     0     0  250.04127    0    -          -  250.04127      -     -    0s
     0     0  250.33574    0    -          -  250.33574      -     -    0s
     0     0  251.73966    0    -          -  251.73966      -     -    0s
     0     0  256.21439    0   23          -  256.21439      -     -    0s
     0     0  259.92871    0   40          -  259.92871      -     -    0s
     0     0  263.75365    0    -          -  263.75365      -     -    0s
     0     0  267.61701    0    -          -  267.61701      -     -    0s
     0     0  267.72676    0   43          -  267.72676      -     -    0s
     0     0  268.89762    0   37          -  268.89762      -     -    0s
     0     0  268.91599    0   12          -  268.91599      -     -    1s
     0     0  269.40796    0   43          -  269.40796      -     -    1s
     0     2  269.74684    0   42          -  269.74684      -     -    1s
   142   175  275.75580   17   38          -  271.62076      -  14.2    6s
H  471   447                     314.9339449  271.86431  13.7%   9.3    9s
   838   789  287.20136   18   36  314.93394  272.72468  13.4%   9.2   10s
H 1506  1203                     311.8522232  275.44908  11.7%   9.0   14s
  1653  1306  287.20501   13   26  311.85222  275.69216  11.6%   9.0   15s
H 2099  1298                     302.0218782  277.20210  8.22%   9.1   16s
  3165  1496  278.74408   20   36  302.02188  277.89840  7.99%  10.2   20s
* 4332  1445              39     301.7428984  282.80997  6.27%  10.1   21s
  7226  1626  295.70133   26   45  301.74290  288.19734  4.49%  10.1   25s
* 8057  1718              37     301.6582384  289.12342  4.16%  10.1   25s

Cutting planes:
  User: 288
  Gomory: 20
  Cover: 1
  MIR: 2
  Flow cover: 4
  Zero half: 38
  RLT: 1
  Lazy constraints: 446

Explored 15519 nodes (153329 simplex iterations) in 29.06 seconds (4.60 work units)
Thread count was 8 (of 10 available processors)

Solution count 5: 301.658 301.743 302.022 ... 314.934

Optimal solution found (tolerance 1.00e-04)
Best objective 3.016582384371e+02, best bound 3.016582384371e+02, gap 0.0000%

User-callback calls 32652, time in user-callback 26.52 sec
### START EXACT APPROACH ###
ProblemVariant: 1
### START PREPROCESSING ###
## Start infeasible path procedure ## 
Deleted arcs: 10
Infeasible tail paths: 2
Infeasible 2-node combinations: 5
## Start extended infeasible path procedure ##
Deleted arcs: 10
Infeasible tail paths: 2
Infeasible 2-node combinations: 5
## Start start solution procedure ##
### END PREPROCESSING ###
Route 0 0-1-3-8-7-14-0 : weight util 0.955556 | volume util 0.654800 | infeasible with packing heuristic | feasible with CP model
Route 1 0-5-9-10-15-12-0 : weight util 0.844444 | volume util 0.568978 | infeasible with packing heuristic | feasible with CP model
Route 2 0-6-13-4-0 : weight util 0.522222 | volume util 0.562511 | infeasible with packing heuristic | feasible with CP model
Route 3 0-11-2-0 : weight util 0.544444 | volume util 0.355400 | infeasible with packing heuristic | feasible with CP model
